NAME           C:\Bruker\Hvattum\knapsack\Problems\class1\100-5-30.mps
ROWS
 N  OBJ
 L  CONSTR1
 L  CONSTR2
 L  CONSTR3
 L  CONSTR4
 L  CONSTR5
COLUMNS
    INT0001   'MARKER'  'INTORG'
    X1        OBJ       1069
    X1        CONSTR1   135
    X1        CONSTR2   723
    X1        CONSTR3   421
    X1        CONSTR4   680
    X1        CONSTR5   948
    X2        OBJ       740
    X2        CONSTR1   997
    X2        CONSTR2   666
    X2        CONSTR3   655
    X2        CONSTR4   353
    X2        CONSTR5   106
    X3        OBJ       785
    X3        CONSTR1   850
    X3        CONSTR2   176
    X3        CONSTR3   988
    X3        CONSTR4   767
    X3        CONSTR5   255
    X4        OBJ       1130
    X4        CONSTR1   971
    X4        CONSTR2   662
    X4        CONSTR3   957
    X4        CONSTR4   469
    X4        CONSTR5   348
    X5        OBJ       937
    X5        CONSTR1   321
    X5        CONSTR2   544
    X5        CONSTR3   922
    X5        CONSTR4   414
    X5        CONSTR5   605
    X6        OBJ       541
    X6        CONSTR1   83
    X6        CONSTR2   657
    X6        CONSTR3   775
    X6        CONSTR4   140
    X6        CONSTR5   796
    X7        OBJ       813
    X7        CONSTR1   101
    X7        CONSTR2   430
    X7        CONSTR3   320
    X7        CONSTR4   21
    X7        CONSTR5   880
    X8        OBJ       997
    X8        CONSTR1   575
    X8        CONSTR2   497
    X8        CONSTR3   217
    X8        CONSTR4   963
    X8        CONSTR5   878
    X9        OBJ       827
    X9        CONSTR1   333
    X9        CONSTR2   470
    X9        CONSTR3   33
    X9        CONSTR4   756
    X9        CONSTR5   285
    X10       OBJ       954
    X10       CONSTR1   382
    X10       CONSTR2   883
    X10       CONSTR3   280
    X10       CONSTR4   678
    X10       CONSTR5   637
    X11       OBJ       603
    X11       CONSTR1   476
    X11       CONSTR2   923
    X11       CONSTR3   148
    X11       CONSTR4   9
    X11       CONSTR5   199
    X12       OBJ       523
    X12       CONSTR1   459
    X12       CONSTR2   158
    X12       CONSTR3   126
    X12       CONSTR4   771
    X12       CONSTR5   265
    X13       OBJ       905
    X13       CONSTR1   490
    X13       CONSTR2   411
    X13       CONSTR3   251
    X13       CONSTR4   844
    X13       CONSTR5   827
    X14       OBJ       673
    X14       CONSTR1   781
    X14       CONSTR2   388
    X14       CONSTR3   604
    X14       CONSTR4   745
    X14       CONSTR5   445
    X15       OBJ       1000
    X15       CONSTR1   128
    X15       CONSTR2   797
    X15       CONSTR3   979
    X15       CONSTR4   877
    X15       CONSTR5   933
    X16       OBJ       306
    X16       CONSTR1   156
    X16       CONSTR2   343
    X16       CONSTR3   70
    X16       CONSTR4   8
    X16       CONSTR5   692
    X17       OBJ       881
    X17       CONSTR1   557
    X17       CONSTR2   376
    X17       CONSTR3   649
    X17       CONSTR4   449
    X17       CONSTR5   82
    X18       OBJ       758
    X18       CONSTR1   442
    X18       CONSTR2   343
    X18       CONSTR3   693
    X18       CONSTR4   757
    X18       CONSTR5   314
    X19       OBJ       594
    X19       CONSTR1   103
    X19       CONSTR2   222
    X19       CONSTR3   211
    X19       CONSTR4   744
    X19       CONSTR5   696
    X20       OBJ       716
    X20       CONSTR1   268
    X20       CONSTR2   26
    X20       CONSTR3   778
    X20       CONSTR4   715
    X20       CONSTR5   84
    X21       OBJ       540
    X21       CONSTR1   740
    X21       CONSTR2   35
    X21       CONSTR3   341
    X21       CONSTR4   662
    X21       CONSTR5   223
    X22       OBJ       716
    X22       CONSTR1   461
    X22       CONSTR2   407
    X22       CONSTR3   326
    X22       CONSTR4   483
    X22       CONSTR5   382
    X23       OBJ       771
    X23       CONSTR1   833
    X23       CONSTR2   656
    X23       CONSTR3   609
    X23       CONSTR4   669
    X23       CONSTR5   893
    X24       OBJ       695
    X24       CONSTR1   725
    X24       CONSTR2   903
    X24       CONSTR3   711
    X24       CONSTR4   179
    X24       CONSTR5   199
    X25       OBJ       722
    X25       CONSTR1   435
    X25       CONSTR2   37
    X25       CONSTR3   983
    X25       CONSTR4   214
    X25       CONSTR5   975
    X26       OBJ       672
    X26       CONSTR1   233
    X26       CONSTR2   499
    X26       CONSTR3   314
    X26       CONSTR4   247
    X26       CONSTR5   744
    X27       OBJ       829
    X27       CONSTR1   341
    X27       CONSTR2   80
    X27       CONSTR3   990
    X27       CONSTR4   526
    X27       CONSTR5   764
    X28       OBJ       621
    X28       CONSTR1   470
    X28       CONSTR2   728
    X28       CONSTR3   219
    X28       CONSTR4   751
    X28       CONSTR5   341
    X29       OBJ       520
    X29       CONSTR1   394
    X29       CONSTR2   611
    X29       CONSTR3   240
    X29       CONSTR4   963
    X29       CONSTR5   286
    X30       OBJ       692
    X30       CONSTR1   41
    X30       CONSTR2   911
    X30       CONSTR3   664
    X30       CONSTR4   843
    X30       CONSTR5   30
    X31       OBJ       875
    X31       CONSTR1   534
    X31       CONSTR2   685
    X31       CONSTR3   380
    X31       CONSTR4   923
    X31       CONSTR5   261
    X32       OBJ       567
    X32       CONSTR1   120
    X32       CONSTR2   467
    X32       CONSTR3   314
    X32       CONSTR4   620
    X32       CONSTR5   204
    X33       OBJ       656
    X33       CONSTR1   515
    X33       CONSTR2   661
    X33       CONSTR3   617
    X33       CONSTR4   183
    X33       CONSTR5   23
    X34       OBJ       528
    X34       CONSTR1   792
    X34       CONSTR2   57
    X34       CONSTR3   577
    X34       CONSTR4   3
    X34       CONSTR5   29
    X35       OBJ       934
    X35       CONSTR1   522
    X35       CONSTR2   166
    X35       CONSTR3   710
    X35       CONSTR4   274
    X35       CONSTR5   870
    X36       OBJ       584
    X36       CONSTR1   413
    X36       CONSTR2   10
    X36       CONSTR3   809
    X36       CONSTR4   221
    X36       CONSTR5   384
    X37       OBJ       723
    X37       CONSTR1   853
    X37       CONSTR2   313
    X37       CONSTR3   593
    X37       CONSTR4   988
    X37       CONSTR5   759
    X38       OBJ       626
    X38       CONSTR1   507
    X38       CONSTR2   266
    X38       CONSTR3   663
    X38       CONSTR4   349
    X38       CONSTR5   446
    X39       OBJ       914
    X39       CONSTR1   348
    X39       CONSTR2   828
    X39       CONSTR3   114
    X39       CONSTR4   486
    X39       CONSTR5   577
    X40       OBJ       563
    X40       CONSTR1   797
    X40       CONSTR2   221
    X40       CONSTR3   367
    X40       CONSTR4   277
    X40       CONSTR5   188
    X41       OBJ       889
    X41       CONSTR1   362
    X41       CONSTR2   668
    X41       CONSTR3   777
    X41       CONSTR4   580
    X41       CONSTR5   456
    X42       OBJ       1045
    X42       CONSTR1   879
    X42       CONSTR2   553
    X42       CONSTR3   653
    X42       CONSTR4   636
    X42       CONSTR5   153
    X43       OBJ       850
    X43       CONSTR1   422
    X43       CONSTR2   388
    X43       CONSTR3   312
    X43       CONSTR4   456
    X43       CONSTR5   535
    X44       OBJ       493
    X44       CONSTR1   319
    X44       CONSTR2   180
    X44       CONSTR3   79
    X44       CONSTR4   246
    X44       CONSTR5   243
    X45       OBJ       675
    X45       CONSTR1   185
    X45       CONSTR2   454
    X45       CONSTR3   832
    X45       CONSTR4   423
    X45       CONSTR5   806
    X46       OBJ       485
    X46       CONSTR1   641
    X46       CONSTR2   55
    X46       CONSTR3   478
    X46       CONSTR4   33
    X46       CONSTR5   166
    X47       OBJ       826
    X47       CONSTR1   760
    X47       CONSTR2   539
    X47       CONSTR3   87
    X47       CONSTR4   270
    X47       CONSTR5   192
    X48       OBJ       922
    X48       CONSTR1   498
    X48       CONSTR2   118
    X48       CONSTR3   543
    X48       CONSTR4   535
    X48       CONSTR5   549
    X49       OBJ       1178
    X49       CONSTR1   946
    X49       CONSTR2   643
    X49       CONSTR3   781
    X49       CONSTR4   896
    X49       CONSTR5   420
    X50       OBJ       542
    X50       CONSTR1   82
    X50       CONSTR2   445
    X50       CONSTR3   151
    X50       CONSTR4   896
    X50       CONSTR5   360
    X51       OBJ       612
    X51       CONSTR1   799
    X51       CONSTR2   551
    X51       CONSTR3   820
    X51       CONSTR4   102
    X51       CONSTR5   142
    X52       OBJ       693
    X52       CONSTR1   178
    X52       CONSTR2   840
    X52       CONSTR3   301
    X52       CONSTR4   351
    X52       CONSTR5   867
    X53       OBJ       539
    X53       CONSTR1   692
    X53       CONSTR2   480
    X53       CONSTR3   183
    X53       CONSTR4   439
    X53       CONSTR5   780
    X54       OBJ       990
    X54       CONSTR1   503
    X54       CONSTR2   757
    X54       CONSTR3   604
    X54       CONSTR4   195
    X54       CONSTR5   416
    X55       OBJ       726
    X55       CONSTR1   55
    X55       CONSTR2   673
    X55       CONSTR3   962
    X55       CONSTR4   912
    X55       CONSTR5   108
    X56       OBJ       1008
    X56       CONSTR1   665
    X56       CONSTR2   534
    X56       CONSTR3   638
    X56       CONSTR4   916
    X56       CONSTR5   985
    X57       OBJ       566
    X57       CONSTR1   481
    X57       CONSTR2   275
    X57       CONSTR3   550
    X57       CONSTR4   884
    X57       CONSTR5   72
    X58       OBJ       877
    X58       CONSTR1   442
    X58       CONSTR2   266
    X58       CONSTR3   723
    X58       CONSTR4   577
    X58       CONSTR5   819
    X59       OBJ       640
    X59       CONSTR1   222
    X59       CONSTR2   436
    X59       CONSTR3   616
    X59       CONSTR4   334
    X59       CONSTR5   569
    X60       OBJ       802
    X60       CONSTR1   378
    X60       CONSTR2   667
    X60       CONSTR3   558
    X60       CONSTR4   2
    X60       CONSTR5   565
    X61       OBJ       761
    X61       CONSTR1   868
    X61       CONSTR2   9
    X61       CONSTR3   600
    X61       CONSTR4   256
    X61       CONSTR5   963
    X62       OBJ       712
    X62       CONSTR1   586
    X62       CONSTR2   64
    X62       CONSTR3   162
    X62       CONSTR4   989
    X62       CONSTR5   994
    X63       OBJ       304
    X63       CONSTR1   85
    X63       CONSTR2   5
    X63       CONSTR3   469
    X63       CONSTR4   637
    X63       CONSTR5   260
    X64       OBJ       896
    X64       CONSTR1   534
    X64       CONSTR2   185
    X64       CONSTR3   495
    X64       CONSTR4   524
    X64       CONSTR5   308
    X65       OBJ       805
    X65       CONSTR1   240
    X65       CONSTR2   359
    X65       CONSTR3   243
    X65       CONSTR4   844
    X65       CONSTR5   438
    X66       OBJ       522
    X66       CONSTR1   291
    X66       CONSTR2   227
    X66       CONSTR3   729
    X66       CONSTR4   246
    X66       CONSTR5   877
    X67       OBJ       599
    X67       CONSTR1   112
    X67       CONSTR2   336
    X67       CONSTR3   844
    X67       CONSTR4   264
    X67       CONSTR5   423
    X68       OBJ       1015
    X68       CONSTR1   877
    X68       CONSTR2   328
    X68       CONSTR3   586
    X68       CONSTR4   964
    X68       CONSTR5   983
    X69       OBJ       960
    X69       CONSTR1   608
    X69       CONSTR2   632
    X69       CONSTR3   270
    X69       CONSTR4   694
    X69       CONSTR5   844
    X70       OBJ       612
    X70       CONSTR1   21
    X70       CONSTR2   914
    X70       CONSTR3   784
    X70       CONSTR4   985
    X70       CONSTR5   63
    X71       OBJ       881
    X71       CONSTR1   352
    X71       CONSTR2   158
    X71       CONSTR3   151
    X71       CONSTR4   649
    X71       CONSTR5   860
    X72       OBJ       891
    X72       CONSTR1   900
    X72       CONSTR2   118
    X72       CONSTR3   510
    X72       CONSTR4   859
    X72       CONSTR5   408
    X73       OBJ       535
    X73       CONSTR1   422
    X73       CONSTR2   1
    X73       CONSTR3   805
    X73       CONSTR4   887
    X73       CONSTR5   173
    X74       OBJ       662
    X74       CONSTR1   293
    X74       CONSTR2   480
    X74       CONSTR3   495
    X74       CONSTR4   953
    X74       CONSTR5   1000
    X75       OBJ       732
    X75       CONSTR1   988
    X75       CONSTR2   872
    X75       CONSTR3   637
    X75       CONSTR4   327
    X75       CONSTR5   408
    X76       OBJ       966
    X76       CONSTR1   481
    X76       CONSTR2   458
    X76       CONSTR3   883
    X76       CONSTR4   255
    X76       CONSTR5   423
    X77       OBJ       750
    X77       CONSTR1   116
    X77       CONSTR2   757
    X77       CONSTR3   192
    X77       CONSTR4   309
    X77       CONSTR5   203
    X78       OBJ       1025
    X78       CONSTR1   542
    X78       CONSTR2   605
    X78       CONSTR3   95
    X78       CONSTR4   802
    X78       CONSTR5   605
    X79       OBJ       512
    X79       CONSTR1   276
    X79       CONSTR2   538
    X79       CONSTR3   244
    X79       CONSTR4   342
    X79       CONSTR5   393
    X80       OBJ       1186
    X80       CONSTR1   624
    X80       CONSTR2   977
    X80       CONSTR3   438
    X80       CONSTR4   991
    X80       CONSTR5   802
    X81       OBJ       985
    X81       CONSTR1   700
    X81       CONSTR2   961
    X81       CONSTR3   267
    X81       CONSTR4   801
    X81       CONSTR5   902
    X82       OBJ       382
    X82       CONSTR1   325
    X82       CONSTR2   593
    X82       CONSTR3   315
    X82       CONSTR4   464
    X82       CONSTR5   135
    X83       OBJ       426
    X83       CONSTR1   17
    X83       CONSTR2   336
    X83       CONSTR3   189
    X83       CONSTR4   146
    X83       CONSTR5   289
    X84       OBJ       538
    X84       CONSTR1   51
    X84       CONSTR2   460
    X84       CONSTR3   666
    X84       CONSTR4   471
    X84       CONSTR5   160
    X85       OBJ       879
    X85       CONSTR1   176
    X85       CONSTR2   759
    X85       CONSTR3   500
    X85       CONSTR4   592
    X85       CONSTR5   32
    X86       OBJ       502
    X86       CONSTR1   47
    X86       CONSTR2   572
    X86       CONSTR3   478
    X86       CONSTR4   242
    X86       CONSTR5   789
    X87       OBJ       733
    X87       CONSTR1   462
    X87       CONSTR2   698
    X87       CONSTR3   297
    X87       CONSTR4   497
    X87       CONSTR5   704
    X88       OBJ       639
    X88       CONSTR1   58
    X88       CONSTR2   264
    X88       CONSTR3   634
    X88       CONSTR4   492
    X88       CONSTR5   781
    X89       OBJ       460
    X89       CONSTR1   361
    X89       CONSTR2   747
    X89       CONSTR3   86
    X89       CONSTR4   50
    X89       CONSTR5   951
    X90       OBJ       802
    X90       CONSTR1   484
    X90       CONSTR2   486
    X90       CONSTR3   379
    X90       CONSTR4   854
    X90       CONSTR5   387
    X91       OBJ       450
    X91       CONSTR1   759
    X91       CONSTR2   159
    X91       CONSTR3   87
    X91       CONSTR4   747
    X91       CONSTR5   218
    X92       OBJ       562
    X92       CONSTR1   288
    X92       CONSTR2   523
    X92       CONSTR3   481
    X92       CONSTR4   87
    X92       CONSTR5   507
    X93       OBJ       1087
    X93       CONSTR1   776
    X93       CONSTR2   560
    X93       CONSTR3   999
    X93       CONSTR4   612
    X93       CONSTR5   54
    X94       OBJ       744
    X94       CONSTR1   896
    X94       CONSTR2   986
    X94       CONSTR3   135
    X94       CONSTR4   500
    X94       CONSTR5   168
    X95       OBJ       981
    X95       CONSTR1   99
    X95       CONSTR2   379
    X95       CONSTR3   707
    X95       CONSTR4   834
    X95       CONSTR5   958
    X96       OBJ       836
    X96       CONSTR1   441
    X96       CONSTR2   111
    X96       CONSTR3   598
    X96       CONSTR4   186
    X96       CONSTR5   388
    X97       OBJ       1042
    X97       CONSTR1   893
    X97       CONSTR2   384
    X97       CONSTR3   340
    X97       CONSTR4   590
    X97       CONSTR5   730
    X98       OBJ       737
    X98       CONSTR1   381
    X98       CONSTR2   88
    X98       CONSTR3   959
    X98       CONSTR4   9
    X98       CONSTR5   728
    X99       OBJ       581
    X99       CONSTR1   131
    X99       CONSTR2   751
    X99       CONSTR3   269
    X99       CONSTR4   769
    X99       CONSTR5   202
    X100      OBJ       572
    X100      CONSTR1   53
    X100      CONSTR2   920
    X100      CONSTR3   504
    X100      CONSTR4   356
    X100      CONSTR5   466
    INT0001   'MARKER'  'INTEND'
RHS
    RHS10001  CONSTR1   33604
    RHS10001  CONSTR2   34889
    RHS10001  CONSTR3   37341
    RHS10001  CONSTR4   39585
    RHS10001  CONSTR5   36775
BOUNDS
 BV BND       X1        .00
 BV BND       X2        .00
 BV BND       X3        .00
 BV BND       X4        .00
 BV BND       X5        .00
 BV BND       X6        .00
 BV BND       X7        .00
 BV BND       X8        .00
 BV BND       X9        .00
 BV BND       X10       .00
 BV BND       X11       .00
 BV BND       X12       .00
 BV BND       X13       .00
 BV BND       X14       .00
 BV BND       X15       .00
 BV BND       X16       .00
 BV BND       X17       .00
 BV BND       X18       .00
 BV BND       X19       .00
 BV BND       X20       .00
 BV BND       X21       .00
 BV BND       X22       .00
 BV BND       X23       .00
 BV BND       X24       .00
 BV BND       X25       .00
 BV BND       X26       .00
 BV BND       X27       .00
 BV BND       X28       .00
 BV BND       X29       .00
 BV BND       X30       .00
 BV BND       X31       .00
 BV BND       X32       .00
 BV BND       X33       .00
 BV BND       X34       .00
 BV BND       X35       .00
 BV BND       X36       .00
 BV BND       X37       .00
 BV BND       X38       .00
 BV BND       X39       .00
 BV BND       X40       .00
 BV BND       X41       .00
 BV BND       X42       .00
 BV BND       X43       .00
 BV BND       X44       .00
 BV BND       X45       .00
 BV BND       X46       .00
 BV BND       X47       .00
 BV BND       X48       .00
 BV BND       X49       .00
 BV BND       X50       .00
 BV BND       X51       .00
 BV BND       X52       .00
 BV BND       X53       .00
 BV BND       X54       .00
 BV BND       X55       .00
 BV BND       X56       .00
 BV BND       X57       .00
 BV BND       X58       .00
 BV BND       X59       .00
 BV BND       X60       .00
 BV BND       X61       .00
 BV BND       X62       .00
 BV BND       X63       .00
 BV BND       X64       .00
 BV BND       X65       .00
 BV BND       X66       .00
 BV BND       X67       .00
 BV BND       X68       .00
 BV BND       X69       .00
 BV BND       X70       .00
 BV BND       X71       .00
 BV BND       X72       .00
 BV BND       X73       .00
 BV BND       X74       .00
 BV BND       X75       .00
 BV BND       X76       .00
 BV BND       X77       .00
 BV BND       X78       .00
 BV BND       X79       .00
 BV BND       X80       .00
 BV BND       X81       .00
 BV BND       X82       .00
 BV BND       X83       .00
 BV BND       X84       .00
 BV BND       X85       .00
 BV BND       X86       .00
 BV BND       X87       .00
 BV BND       X88       .00
 BV BND       X89       .00
 BV BND       X90       .00
 BV BND       X91       .00
 BV BND       X92       .00
 BV BND       X93       .00
 BV BND       X94       .00
 BV BND       X95       .00
 BV BND       X96       .00
 BV BND       X97       .00
 BV BND       X98       .00
 BV BND       X99       .00
 BV BND       X100      .00
ENDATA
